benchmarks_CP/INST_36x36/35/inst36x36_35_39.dzn
S=6;
start=[|
12,	-1,	-1,	-1,	31,	-1,	-1,	-1,	2,	34,	13,	-1,	-1,	-1,	-1,	-1,	5,	-1,	-1,	22,	-1,	30,	-1,	-1,	-1,	-1,	-1,	-1,	-1,	-1,	-1,	-1,	-1,	35,	1,	15|
21,	-1,	-1,	-1,	-1,	14,	-1,	-1,	-1,	-1,	-1,	-1,	3,	23,	-1,	-1,	18,	22,	13,	-1,	26,	-1,	-1,	28,	1,	20,	-1,	24,	10,	4,	-1,	-1,	-1,	-1,	16,	-1|
1,	-1,	-1,	-1,	17,	-1,	5,	-1,	-1,	-1,	-1,	-1,	-1,	-1,	-1,	30,	-1,	-1,	-1,	35,	-1,	-1,	6,	-1,	-1,	-1,	31,	15,	25,	29,	10,	-1,	-1,	22,	-1,	23|
30,	-1,	32,	24,	16,	-1,	-1,	-1,	27,	28,	33,	12,	-1,	20,	2,	35,	-1,	-1,	-1,	-1,	-1,	31,	4,	1,	-1,	22,	-1,	11,	-1,	-1,	29,	-1,	-1,	-1,	-1,	3|
-1,	-1,	13,	7,	-1,	-1,	26,	-1,	-1,	6,	-1,	-1,	19,	-1,	-1,	-1,	-1,	1,	-1,	11,	21,	-1,	-1,	12,	-1,	-1,	-1,	-1,	-1,	-1,	-1,	2,	14,	5,	4,	25|
36,	-1,	-1,	-1,	28,	-1,	-1,	29,	-1,	-1,	7,	1,	-1,	-1,	-1,	27,	-1,	-1,	2,	-1,	-1,	9,	-1,	-1,	-1,	-1,	19,	-1,	18,	-1,	21,	-1,	-1,	-1,	-1,	11|
32,	17,	-1,	-1,	30,	-1,	-1,	-1,	36,	11,	-1,	-1,	6,	-1,	-1,	-1,	9,	-1,	-1,	-1,	24,	-1,	-1,	-1,	13,	-1,	2,	-1,	-1,	-1,	-1,	-1,	-1,	7,	-1,	-1|
26,	15,	-1,	-1,	-1,	-1,	-1,	-1,	-1,	-1,	-1,	16,	2,	-1,	14,	8,	-1,	-1,	34,	-1,	9,	21,	-1,	20,	27,	35,	36,	23,	-1,	28,	12,	31,	-1,	32,	11,	-1|
-1,	-1,	3,	-1,	-1,	-1,	-1,	-1,	25,	20,	-1,	-1,	-1,	34,	-1,	36,	21,	17,	-1,	-1,	-1,	-1,	-1,	-1,	-1,	-1,	-1,	32,	-1,	-1,	-1,	-1,	-1,	-1,	8,	-1|
33,	-1,	-1,	-1,	9,	27,	-1,	8,	-1,	-1,	-1,	-1,	-1,	3,	-1,	31,	-1,	-1,	23,	-1,	6,	12,	-1,	-1,	15,	-1,	22,	-1,	-1,	5,	17,	-1,	-1,	-1,	-1,	-1|
18,	-1,	-1,	-1,	-1,	-1,	1,	9,	-1,	-1,	-1,	-1,	-1,	-1,	32,	-1,	-1,	33,	36,	16,	-1,	5,	-1,	-1,	-1,	-1,	-1,	-1,	-1,	-1,	-1,	-1,	-1,	-1,	-1,	26|
-1,	-1,	-1,	-1,	-1,	22,	31,	-1,	-1,	21,	-1,	28,	-1,	-1,	-1,	24,	29,	12,	-1,	-1,	-1,	-1,	-1,	-1,	25,	1,	-1,	-1,	30,	-1,	-1,	36,	-1,	-1,	-1,	-1|
7,	-1,	-1,	-1,	-1,	-1,	-1,	-1,	32,	25,	-1,	-1,	-1,	-1,	-1,	-1,	-1,	-1,	31,	8,	34,	35,	-1,	18,	10,	-1,	15,	-1,	12,	22,	26,	-1,	-1,	23,	-1,	20|
-1,	28,	-1,	-1,	-1,	-1,	2,	7,	1,	-1,	21,	-1,	-1,	4,	-1,	-1,	-1,	3,	25,	-1,	-1,	-1,	-1,	27,	31,	-1,	29,	8,	-1,	-1,	18,	-1,	-1,	30,	-1,	-1|
8,	-1,	-1,	25,	-1,	30,	-1,	-1,	-1,	-1,	31,	20,	-1,	22,	-1,	10,	33,	-1,	-1,	7,	1,	4,	-1,	29,	-1,	-1,	-1,	-1,	28,	34,	35,	-1,	3,	-1,	-1,	32|
-1,	23,	-1,	3,	-1,	4,	-1,	-1,	14,	12,	-1,	-1,	-1,	11,	15,	-1,	-1,	-1,	-1,	28,	22,	-1,	-1,	-1,	-1,	-1,	-1,	1,	-1,	-1,	-1,	-1,	-1,	-1,	-1,	-1|
9,	24,	-1,	26,	-1,	31,	-1,	-1,	13,	-1,	-1,	29,	-1,	-1,	8,	-1,	-1,	23,	-1,	-1,	32,	10,	3,	-1,	-1,	14,	11,	-1,	-1,	-1,	-1,	-1,	-1,	-1,	-1,	-1|
29,	33,	10,	-1,	-1,	12,	-1,	-1,	30,	26,	-1,	-1,	-1,	-1,	-1,	-1,	-1,	-1,	-1,	15,	-1,	23,	2,	-1,	-1,	-1,	7,	-1,	13,	-1,	6,	-1,	-1,	17,	-1,	-1|
31,	13,	-1,	14,	-1,	-1,	-1,	28,	-1,	-1,	4,	-1,	-1,	-1,	-1,	-1,	2,	-1,	-1,	34,	-1,	-1,	-1,	-1,	-1,	-1,	-1,	-1,	-1,	-1,	-1,	-1,	-1,	11,	-1,	36|
27,	1,	-1,	-1,	15,	-1,	-1,	32,	18,	-1,	-1,	-1,	-1,	29,	-1,	12,	-1,	30,	33,	19,	-1,	-1,	-1,	2,	-1,	-1,	25,	21,	3,	-1,	23,	-1,	-1,	-1,	-1,	-1|
-1,	-1,	4,	35,	-1,	5,	-1,	6,	-1,	-1,	-1,	2,	-1,	-1,	27,	-1,	-1,	13,	-1,	-1,	-1,	-1,	-1,	-1,	-1,	9,	-1,	17,	-1,	-1,	-1,	-1,	-1,	12,	-1,	-1|
-1,	19,	-1,	-1,	-1,	23,	12,	-1,	-1,	-1,	-1,	25,	20,	-1,	9,	17,	-1,	-1,	-1,	1,	-1,	-1,	-1,	-1,	-1,	-1,	13,	4,	-1,	-1,	2,	-1,	-1,	15,	-1,	-1|
-1,	3,	-1,	-1,	26,	-1,	-1,	-1,	-1,	-1,	34,	-1,	-1,	-1,	-1,	23,	11,	-1,	-1,	-1,	-1,	-1,	-1,	-1,	16,	-1,	6,	28,	-1,	-1,	-1,	-1,	4,	18,	-1,	-1|
34,	-1,	-1,	11,	-1,	-1,	20,	1,	-1,	9,	26,	3,	-1,	-1,	-1,	-1,	22,	-1,	-1,	-1,	-1,	-1,	-1,	4,	-1,	-1,	-1,	-1,	-1,	-1,	-1,	-1,	-1,	19,	29,	24|
-1,	-1,	-1,	-1,	-1,	36,	-1,	23,	-1,	-1,	-1,	-1,	-1,	-1,	18,	11,	-1,	-1,	-1,	-1,	-1,	33,	-1,	-1,	-1,	-1,	1,	3,	20,	10,	-1,	25,	17,	29,	-1,	-1|
-1,	-1,	-1,	-1,	-1,	7,	-1,	12,	-1,	18,	-1,	-1,	-1,	-1,	6,	16,	-1,	-1,	3,	-1,	-1,	-1,	21,	26,	-1,	-1,	35,	-1,	8,	30,	32,	23,	33,	-1,	5,	-1|
14,	-1,	-1,	-1,	-1,	29,	-1,	-1,	-1,	36,	-1,	31,	35,	-1,	-1,	-1,	-1,	25,	4,	32,	-1,	8,	-1,	-1,	-1,	-1,	34,	-1,	19,	-1,	-1,	-1,	24,	-1,	-1,	-1|
-1,	-1,	-1,	-1,	3,	-1,	-1,	4,	26,	-1,	35,	-1,	-1,	-1,	-1,	-1,	-1,	-1,	-1,	-1,	-1,	27,	23,	-1,	-1,	-1,	-1,	-1,	9,	-1,	-1,	-1,	-1,	-1,	-1,	-1|
-1,	-1,	-1,	-1,	-1,	-1,	25,	-1,	-1,	2,	-1,	-1,	22,	26,	-1,	4,	-1,	-1,	1,	18,	19,	-1,	20,	-1,	29,	-1,	-1,	-1,	7,	6,	-1,	-1,	10,	36,	-1,	12|
15,	-1,	26,	-1,	22,	-1,	-1,	-1,	3,	-1,	27,	21,	-1,	-1,	-1,	34,	-1,	-1,	-1,	10,	-1,	-1,	24,	-1,	-1,	-1,	4,	-1,	17,	-1,	-1,	35,	-1,	31,	-1,	-1|
3,	-1,	-1,	27,	-1,	-1,	16,	26,	-1,	-1,	11,	13,	-1,	35,	19,	-1,	-1,	2,	-1,	20,	-1,	-1,	-1,	-1,	-1,	6,	-1,	22,	15,	18,	31,	24,	-1,	-1,	-1,	9|
-1,	11,	-1,	2,	-1,	-1,	-1,	-1,	-1,	-1,	10,	5,	15,	17,	7,	-1,	-1,	-1,	21,	-1,	18,	-1,	-1,	-1,	12,	26,	-1,	-1,	-1,	-1,	-1,	32,	29,	8,	-1,	33|
-1,	4,	-1,	15,	-1,	21,	-1,	-1,	-1,	8,	-1,	-1,	-1,	-1,	-1,	33,	-1,	11,	-1,	13,	14,	-1,	-1,	-1,	-1,	-1,	-1,	-1,	-1,	-1,	-1,	-1,	26,	-1,	-1,	-1|
19,	16,	24,	33,	-1,	32,	14,	-1,	6,	-1,	12,	30,	27,	-1,	-1,	-1,	-1,	-1,	-1,	31,	-1,	-1,	-1,	-1,	11,	5,	-1,	-1,	-1,	13,	-1,	-1,	-1,	-1,	-1,	-1|
-1,	-1,	-1,	-1,	-1,	-1,	-1,	-1,	-1,	15,	-1,	-1,	-1,	21,	4,	6,	-1,	-1,	7,	-1,	-1,	-1,	-1,	19,	-1,	-1,	-1,	10,	31,	-1,	-1,	-1,	-1,	-1,	-1,	2|
-1,	-1,	-1,	-1,	-1,	-1,	-1,	25,	-1,	-1,	-1,	35,	24,	13,	-1,	-1,	-1,	-1,	6,	12,	-1,	-1,	-1,	-1,	-1,	4,	-1,	-1,	-1,	-1,	19,	-1,	-1,	14,	7,	-1|];
